data/processed_heuristic-threshold/instances/4/5/ds_515_courier_1656/pairwise.tsp
NAME: ds_515_courier_1656
TYPE: TSP
COMMENT: nil
DIMENSION: 9
EDGE_WEIGHT_TYPE: EXPLICIT
EDGE_WEIGHT_FORMAT: FULL_MATRIX
EDGE_WEIGHT_SECTION
9999 223 137 791 16 154 496 507 755 
223 9999 137 653 207 103 367 448 640 
137 137 9999 656 123 34 360 389 624 
791 653 656 9999 778 650 296 340 90 
16 207 123 778 9999 138 483 497 744 
154 103 34 650 138 9999 354 397 623 
496 367 360 296 483 354 9999 165 273 
507 448 389 340 497 397 165 9999 274 
755 640 624 90 744 623 273 274 9999 
