data/processed_heuristic-threshold/instances/4/5/ds_515_courier_1656/pairwise.sol
9
0 4 5 1 6 3 8 7 2 
